
  22   10
  10   10   10   10   10   10   10   10   10   10

   0   0   0   0   0   0   0   0   0   0   0   1 2 
   4  10  10  10  10  10  10  10  10  10  10   1 3 
   8  10  10  10  10  10  10  10  10  10  10   2 5 4 
   8  10  10  10  10  10  10  10  10  10  10   2 7 6 
   6  10  10  10  10  10  10  10  10  10  10   1 6 
   1  10  10  10  10  10  10  10  10  10  10   2 9 8 
   6  10  10  10  10  10  10  10  10  10  10   4 12 11 10 9 
   2  10  10  10  10  10  10  10  10  10  10   3 12 11 10 
   2  10  10  10  10  10  10  10  10  10  10   3 16 14 13 
   8  10  10  10  10  10  10  10  10  10  10   2 16 14 
  10  10  10  10  10  10  10  10  10  10  10   2 14 13 
   6  10  10  10  10  10  10  10  10  10  10   1 13 
  10  10  10  10  10  10  10  10  10  10  10   2 17 15 
   2  10  10  10  10  10  10  10  10  10  10   2 17 15 
  10  10  10  10  10  10  10  10  10  10  10   2 21 18 
   5  10  10  10  10  10  10  10  10  10  10   2 21 17 
   3  10  10  10  10  10  10  10  10  10  10   2 20 19 
   1  10  10  10  10  10  10  10  10  10  10   2 20 19 
   2  10  10  10  10  10  10  10  10  10  10   1 22
  10  10  10  10  10  10  10  10  10  10  10   1 22
   9  10  10  10  10  10  10  10  10  10  10   1 22
   0   0   0   0   0   0   0   0   0   0   0   0 
